NAME : portcgen-16-11
COMMENT : portcgen N=16, seed=11
TYPE : TSP
DIMENSION : 16
EDGE_WEIGHT_TYPE : EUC_2D
NODE_COORD_SECTION
1 -439758 -2240
2 104695 -312476
3 -391635 82319
4 -213544 16760
5 204187 -185780
6 110241 -680828
7 209525 -132021
8 251723 409453
9 91366 -152162
10 -153439 -251502
11 39552 34359
12 97626 339088
13 -466301 -255909
14 441379 285325
15 44951 -22862
16 -220070 234452
